words_easy_train/words_594_SAT.qaiger
aag 67 16 0 1 51
26
22
24
4
12
28
32
18
6
8
14
2
30
16
10
20
135
34 4 2
36 35 7
38 37 8
40 38 10
42 41 13
44 40 12
46 45 43
48 47 28
50 46 29
52 51 49
54 43 14
56 33 16
58 32 17
60 59 57
62 61 54
64 60 55
66 65 63
68 36 9
70 69 39
72 71 25
74 70 24
76 75 73
78 18 3
80 20 4
82 21 5
84 83 81
86 85 78
88 19 2
90 88 84
92 91 87
94 34 6
96 95 37
98 96 22
100 97 23
102 101 99
104 102 93
106 104 77
108 39 11
110 109 41
112 110 27
114 111 26
116 115 113
118 116 106
120 118 66
122 120 53
124 42 15
126 125 55
128 126 30
130 127 31
132 131 129
134 133 122
i0 1 x2[4]
i1 1 x2[2]
i2 1 x2[3]
i3 2 y1[1]
i4 2 y1[5]
i5 1 x2[5]
i6 1 x2[7]
i7 1 x2[0]
i8 2 y1[2]
i9 2 y1[3]
i10 2 y1[6]
i11 2 y1[0]
i12 1 x2[6]
i13 2 y1[7]
i14 2 y1[4]
i15 1 x2[1]
o0 bool[0]
c
simplified
  !=
    subtract
      -91
      unary minus
        2 y1
    1 x2
