words_easy_train/words_594_SAT.qaiger.qdimacs
p cnf 67 154
a 9 10 11 12 13 14 15 16 0
e 1 2 3 4 5 6 7 8 17 18 19 20 21 22 23 24 25 26 27 28 29 30 31 32 33 34 35 36 37 38 39 40 41 42 43 44 45 46 47 48 49 50 51 52 53 54 55 56 57 58 59 60 61 62 63 64 65 66 67 0
-2 -1 17 0
2 -17 0
1 -17 0
17 3 18 0
-17 -18 0
-3 -18 0
18 -4 19 0
-18 -19 0
4 -19 0
-19 -5 20 0
19 -20 0
5 -20 0
20 6 21 0
-20 -21 0
-6 -21 0
-20 -6 22 0
20 -22 0
6 -22 0
22 21 23 0
-22 -23 0
-21 -23 0
23 -14 24 0
-23 -24 0
14 -24 0
-23 14 25 0
23 -25 0
-14 -25 0
25 24 26 0
-25 -26 0
-24 -26 0
21 -7 27 0
-21 -27 0
7 -27 0
16 -8 28 0
-16 -28 0
8 -28 0
-16 8 29 0
16 -29 0
-8 -29 0
29 28 30 0
-29 -30 0
-28 -30 0
30 -27 31 0
-30 -31 0
27 -31 0
-30 27 32 0
30 -32 0
-27 -32 0
32 31 33 0
-32 -33 0
-31 -33 0
-18 4 34 0
18 -34 0
-4 -34 0
34 19 35 0
-34 -35 0
-19 -35 0
35 12 36 0
-35 -36 0
-12 -36 0
-35 -12 37 0
35 -37 0
12 -37 0
37 36 38 0
-37 -38 0
-36 -38 0
-9 1 39 0
9 -39 0
-1 -39 0
-10 -2 40 0
10 -40 0
2 -40 0
10 2 41 0
-10 -41 0
-2 -41 0
41 40 42 0
-41 -42 0
-40 -42 0
42 -39 43 0
-42 -43 0
39 -43 0
9 -1 44 0
-9 -44 0
1 -44 0
-44 -42 45 0
44 -45 0
42 -45 0
45 43 46 0
-45 -46 0
-43 -46 0
-17 -3 47 0
17 -47 0
3 -47 0
47 18 48 0
-47 -48 0
-18 -48 0
-48 -11 49 0
48 -49 0
11 -49 0
48 11 50 0
-48 -50 0
-11 -50 0
50 49 51 0
-50 -51 0
-49 -51 0
-51 46 52 0
51 -52 0
-46 -52 0
-52 38 53 0
52 -53 0
-38 -53 0
19 5 54 0
-19 -54 0
-5 -54 0
54 20 55 0
-54 -55 0
-20 -55 0
-55 13 56 0
55 -56 0
-13 -56 0
55 -13 57 0
-55 -57 0
13 -57 0
57 56 58 0
-57 -58 0
-56 -58 0
-58 -53 59 0
58 -59 0
53 -59 0
-59 -33 60 0
59 -60 0
33 -60 0
-60 26 61 0
60 -61 0
-26 -61 0
-21 7 62 0
21 -62 0
-7 -62 0
62 27 63 0
-62 -63 0
-27 -63 0
-63 -15 64 0
63 -64 0
15 -64 0
63 15 65 0
-63 -65 0
-15 -65 0
65 64 66 0
-65 -66 0
-64 -66 0
66 -61 67 0
-66 -67 0
61 -67 0
-67 0
